NAME : portgen-18-56
COMMENT : portgen N=18, seed=56
TYPE : TSP
DIMENSION : 18
EDGE_WEIGHT_TYPE : EUC_2D
NODE_COORD_SECTION
1 274048 118242
2 782489 480136
3 297268 833107
4 386598 387844
5 276781 768710
6 755591 571436
7 916322 20788
8 981239 518529
9 875510 587951
10 141076 750754
11 618190 173797
12 116404 154885
13 774393 706318
14 294680 572707
15 195088 37508
16 401636 705338
17 266905 409739
18 243137 247097
